Traveling Salesman Problem/TSP_generados/Aleatorio1620394616_17.tsp
NAME: Aleatorio1620394616_17.tsp
COMMENT: Randomly generated scenario
TYPE: TSP
DIMENSION: 17
EDGE_WEIGHT_TYPE: ATT
NODE_COORD_SECTION
1 38.55 33.15
2 38.54 36.01
3 22.34 1.97
4 36.03 21.73
5 31.87 21.49
6 47.23 7.68
7 39.53 6.19
8 11.81 3.72
9 33.18 43.22
10 21.79 2.31
11 15.94 38.93
12 40.38 23.64
13 5.42 15.51
14 7.63 18.86
15 28.04 1.71
16 20.17 43.82
17 2.17 5.46
