Traveling Salesman Problem/TSP_generados/Aleatorio1620394616_17.opt.tour
NAME: Aleatorio1620394616_17.opt.tour
COMMENT: Optimal solution for Aleatorio1620394616_17 (153.2921034779925)
TYPE: TOUR
DIMENSION: 17
TOUR_SECTION
1 12 4 5 6 7 15 3 10 8 17 13 14 11 16 9 2
-1
EOF
